c Sudoku solution
p cnf 729 0
145 0
197 0
213 0
228 0
267 0
279 0
296 0
312 0
359 0
526 0
532 0
549 0
591 0
643 0
654 0
672 0
715 0
731 0
777 0
827 0
337 0
838 0
958 0
947 0
973 0
723 0
922 0
433 0
583 0
393 0
981 0
752 0
251 0
892 0
686 0
487 0
557 0
617 0
876 0
518 0
574 0
565 0
456 0
855 0
863 0
841 0
814 0
889 0
995 0
769 0
746 0
964 0
424 0
366 0
153 0
794 0
788 0
475 0
168 0
242 0
344 0
182 0
134 0
235 0
321 0
129 0
116 0
171 0
378 0
284 0
385 0
411 0
661 0
499 0
698 0
919 0
936 0
625 0
639 0
448 0
462 0
